node 0 w: 6.16, h: 12.95
node 1 w: 4.9, h: 12.95
node 2 w: 8.2026-06-20 18:39:27 - INFO - Set parameter WLSAccessID
2026-06-20 18:39:27 - INFO - Set parameter WLSSecret
2026-06-20 18:39:27 - INFO - Set parameter LicenseID to value 2756663
2026-06-20 18:39:27 - INFO - Academic license 2756663 - for non-commercial use only - registered to hu___@sjtu.edu.cn
2026-06-20 18:39:27 - INFO - Set parameter TimeLimit to value 300
2026-06-20 18:39:27 - INFO - Set parameter MIPGap to value 0
2026-06-20 18:39:27 - INFO - Set parameter MIPFocus to value 3
2026-06-20 18:39:27 - INFO - Set parameter Heuristics to value 0.5
2026-06-20 18:39:27 - INFO - Set parameter LogToConsole to value 1
2026-06-20 18:39:27 - INFO - Gurobi Optimizer version 13.0.1 build v13.0.1rc0 (linux64 - "Ubuntu 20.04.6 LTS")
2026-06-20 18:39:27 - INFO - 
2026-06-20 18:39:27 - INFO - CPU model: AMD Ryzen 9 9950X3D 16-Core Processor, instruction set [SSE2|AVX|AVX2|AVX512]
2026-06-20 18:39:27 - INFO - Thread count: 14 physical cores, 28 logical processors, using up to 28 threads
2026-06-20 18:39:27 - INFO - 
2026-06-20 18:39:27 - INFO - Non-default parameters:
2026-06-20 18:39:27 - INFO - TimeLimit  300
2026-06-20 18:39:27 - INFO - MIPGap  0
2026-06-20 18:39:27 - INFO - Heuristics  0.5
2026-06-20 18:39:27 - INFO - MIPFocus  3
2026-06-20 18:39:27 - INFO - 
2026-06-20 18:39:27 - INFO - Academic license 2756663 - for non-commercial use only - registered to hu___@sjtu.edu.cn
2026-06-20 18:39:27 - INFO - Optimize a model with 1137 rows, 524 columns and 3857 nonzeros (Min)
2026-06-20 18:39:27 - INFO - Model fingerprint: 0xbbe59c61
2026-06-20 18:39:27 - INFO - Model has 3 linear objective coefficients
2026-06-20 18:39:27 - INFO - Variable types: 217 continuous, 307 integer (307 binary)
2026-06-20 18:39:27 - INFO - Coefficient statistics:
2026-06-20 18:39:27 - INFO -   Matrix range     [3e-01, 8e+03]
2026-06-20 18:39:27 - INFO -   Objective range  [8e-05, 9e-02]
2026-06-20 18:39:27 - INFO -   Bounds range     [9e-01, 1e+07]
2026-06-20 18:39:27 - INFO -   RHS range        [9e-01, 3e+02]
2026-06-20 18:39:27 - INFO - 
2026-06-20 18:39:27 - INFO - Presolve removed 102 rows and 88 columns
2026-06-20 18:39:27 - INFO - Presolve time: 0.01s
2026-06-20 18:39:27 - INFO - Presolved: 1035 rows, 436 columns, 3638 nonzeros
2026-06-20 18:39:27 - INFO - Variable types: 149 continuous, 287 integer (287 binary)
2026-06-20 18:39:27 - INFO - Root relaxation presolve removed 100 rows and 24 columns
2026-06-20 18:39:27 - INFO - Root relaxation presolved: 935 rows, 430 columns, 3416 nonzeros
2026-06-20 18:39:27 - INFO - 
2026-06-20 18:39:27 - INFO - 
2026-06-20 18:39:27 - INFO - Root relaxation: objective 2.557886e+00, 217 iterations, 0.00 seconds (0.01 work units)
2026-06-20 18:39:27 - INFO - 
2026-06-20 18:39:27 - INFO -     Nodes    |    Current Node    |     Objective Bounds      |     Work
2026-06-20 18:39:27 - INFO -  Expl Unexpl |  Obj  Depth IntInf | Incumbent    BestBd   Gap | It/Node Time
2026-06-20 18:39:27 - INFO - 
2026-06-20 18:39:27 - INFO -      0     0    2.55789    0  112          -    2.55789      -     -    0s
2026-06-20 18:39:27 - INFO -      0     0    2.56466    0  135          -    2.56466      -     -    0s
2026-06-20 18:39:27 - INFO -      0     0    2.56466    0  122          -    2.56466      -     -    0s
2026-06-20 18:39:27 - INFO -      0     0    4.19851    0  121          -    4.19851      -     -    0s
2026-06-20 18:39:28 - INFO -      0     0    4.19851    0  133          -    4.19851      -     -    0s
2026-06-20 18:39:28 - INFO -      0     0    4.19851    0  120          -    4.19851      -     -    0s
2026-06-20 18:39:28 - INFO -      0     0    4.89706    0  117          -    4.89706      -     -    0s
2026-06-20 18:39:28 - INFO -      0     0    5.23459    0  136          -    5.23459      -     -    0s
2026-06-20 18:39:28 - INFO -      0     0    5.23459    0  136          -    5.23459      -     -    0s
2026-06-20 18:39:28 - INFO -      0     0    5.23459    0  127          -    5.23459      -     -    0s
2026-06-20 18:39:28 - INFO -      0     0    5.55354    0  127          -    5.55354      -     -    0s
2026-06-20 18:39:28 - INFO -      0     0    5.55354    0  118          -    5.55354      -     -    0s
2026-06-20 18:39:29 - INFO -      0     2    5.55354    0  118          -    5.55354      -     -    1s
2026-06-20 18:39:32 - INFO -   2756  2022    8.00330   11  159          -    6.52046      -  31.5    5s
2026-06-20 18:39:37 - INFO - 
2026-06-20 18:39:37 - INFO - Cutting planes:
2026-06-20 18:39:37 - INFO -   Learned: 20
2026-06-20 18:39:37 - INFO -   Gomory: 139
2026-06-20 18:39:37 - INFO -   Lift-and-project: 78
2026-06-20 18:39:37 - INFO -   Cover: 2
2026-06-20 18:39:37 - INFO -   Implied bound: 3
2026-06-20 18:39:37 - INFO -   MIR: 39
2026-06-20 18:39:37 - INFO -   Mixing: 1
2026-06-20 18:39:37 - INFO -   Flow cover: 318
2026-06-20 18:39:37 - INFO -   Inf proof: 13
2026-06-20 18:39:37 - INFO -   RLT: 2
2026-06-20 18:39:37 - INFO -   Relax-and-lift: 2
2026-06-20 18:39:37 - INFO -   PSD: 2
2026-06-20 18:39:37 - INFO - 
2026-06-20 18:39:37 - INFO - Explored 11958 nodes (497673 simplex iterations) in 9.41 seconds (13.97 work units)
2026-06-20 18:39:37 - INFO - Thread count was 28 (of 28 available processors)
2026-06-20 18:39:37 - INFO - 
2026-06-20 18:39:37 - INFO - Solution count 0
2026-06-20 18:39:37 - INFO - 
2026-06-20 18:39:37 - INFO - Model is infeasible
2026-06-20 18:39:37 - INFO - Best objective -, best bound -, gap -
2026-06-20 18:39:37 - INFO - Set parameter TimeLimit to value 300
2026-06-20 18:39:37 - INFO - Set parameter MIPGap to value 0.3
2026-06-20 18:39:37 - INFO - Set parameter MIPFocus to value 3
2026-06-20 18:39:37 - INFO - Set parameter Heuristics to value 0.5
2026-06-20 18:39:37 - INFO - Set parameter LogToConsole to value 1
2026-06-20 18:39:37 - INFO - Gurobi Optimizer version 13.0.1 build v13.0.1rc0 (linux64 - "Ubuntu 20.04.6 LTS")
2026-06-20 18:39:37 - INFO - 
2026-06-20 18:39:37 - INFO - CPU model: AMD Ryzen 9 9950X3D 16-Core Processor, instruction set [SSE2|AVX|AVX2|AVX512]
2026-06-20 18:39:37 - INFO - Thread count: 14 physical cores, 28 logical processors, using up to 28 threads
2026-06-20 18:39:37 - INFO - 
2026-06-20 18:39:37 - INFO - Non-default parameters:
2026-06-20 18:39:37 - INFO - TimeLimit  300
2026-06-20 18:39:37 - INFO - MIPGap  0.3
2026-06-20 18:39:37 - INFO - Heuristics  0.5
2026-06-20 18:39:37 - INFO - MIPFocus  3
2026-06-20 18:39:37 - INFO - 
2026-06-20 18:39:37 - INFO - Academic license 2756663 - for non-commercial use only - registered to hu___@sjtu.edu.cn
2026-06-20 18:39:37 - INFO - Optimize a model with 1137 rows, 524 columns and 3857 nonzeros (Min)
2026-06-20 18:39:37 - INFO - Model fingerprint: 0xbbe59c61
2026-06-20 18:39:37 - INFO - Model has 3 linear objective coefficients
2026-06-20 18:39:37 - INFO - Variable types: 217 continuous, 307 integer (307 binary)
2026-06-20 18:39:37 - INFO - Coefficient statistics:
2026-06-20 18:39:37 - INFO -   Matrix range     [3e-01, 8e+03]
2026-06-20 18:39:37 - INFO -   Objective range  [8e-05, 9e-02]
2026-06-20 18:39:37 - INFO -   Bounds range     [9e-01, 1e+07]
2026-06-20 18:39:37 - INFO -   RHS range        [9e-01, 3e+02]
2026-06-20 18:39:37 - INFO - 
2026-06-20 18:39:37 - INFO - Presolved: 1035 rows, 436 columns, 3638 nonzeros
2026-06-20 18:39:37 - INFO - 
2026-06-20 18:39:37 - INFO - Continuing optimization...
2026-06-20 18:39:37 - INFO - 
2026-06-20 18:39:37 - INFO - 
2026-06-20 18:39:37 - INFO - Cutting planes:
2026-06-20 18:39:37 - INFO -   Learned: 20
2026-06-20 18:39:37 - INFO -   Gomory: 139
2026-06-20 18:39:37 - INFO -   Lift-and-project: 78
2026-06-20 18:39:37 - INFO -   Cover: 2
2026-06-20 18:39:37 - INFO -   Implied bound: 3
2026-06-20 18:39:37 - INFO -   MIR: 39
2026-06-20 18:39:37 - INFO -   Mixing: 1
2026-06-20 18:39:37 - INFO -   Flow cover: 318
2026-06-20 18:39:37 - INFO -   Inf proof: 13
2026-06-20 18:39:37 - INFO -   RLT: 2
2026-06-20 18:39:37 - INFO -   Relax-and-lift: 2
2026-06-20 18:39:37 - INFO -   PSD: 2
2026-06-20 18:39:37 - INFO - 
2026-06-20 18:39:37 - INFO - Explored 11958 nodes (497673 simplex iterations) in 9.42 seconds (13.97 work units)
2026-06-20 18:39:37 - INFO - Most recent optimization runtime was 0.01 seconds (0.00 work units)
2026-06-20 18:39:37 - INFO - Thread count was 28 (of 28 available processors)
2026-06-20 18:39:37 - INFO - 
2026-06-20 18:39:37 - INFO - Solution count 0
2026-06-20 18:39:37 - INFO - 
2026-06-20 18:39:37 - INFO - Model is infeasible
2026-06-20 18:39:37 - INFO - Best objective -, best bound -, gap -
2026-06-20 18:39:37 - INFO - Set parameter TimeLimit to value 3600
2026-06-20 18:39:37 - INFO - Set parameter MIPGap to value 0.8
2026-06-20 18:39:37 - INFO - Set parameter MIPFocus to value 3
2026-06-20 18:39:37 - INFO - Set parameter Heuristics to value 0.5
2026-06-20 18:39:37 - INFO - Set parameter LogToConsole to value 1
2026-06-20 18:39:37 - INFO - Gurobi Optimizer version 13.0.1 build v13.0.1rc0 (linux64 - "Ubuntu 20.04.6 LTS")
2026-06-20 18:39:37 - INFO - 
2026-06-20 18:39:37 - INFO - CPU model: AMD Ryzen 9 9950X3D 16-Core Processor, instruction set [SSE2|AVX|AVX2|AVX512]
2026-06-20 18:39:37 - INFO - Thread count: 14 physical cores, 28 logical processors, using up to 28 threads
2026-06-20 18:39:37 - INFO - 
2026-06-20 18:39:37 - INFO - Non-default parameters:
2026-06-20 18:39:37 - INFO - TimeLimit  3600
2026-06-20 18:39:37 - INFO - MIPGap  0.8
2026-06-20 18:39:37 - INFO - Heuristics  0.5
2026-06-20 18:39:37 - INFO - MIPFocus  3
2026-06-20 18:39:37 - INFO - 
2026-06-20 18:39:37 - INFO - Academic license 2756663 - for non-commercial use only - registered to hu___@sjtu.edu.cn
2026-06-20 18:39:37 - INFO - Optimize a model with 1137 rows, 524 columns and 3857 nonzeros (Min)
2026-06-20 18:39:37 - INFO - Model fingerprint: 0xbbe59c61
2026-06-20 18:39:37 - INFO - Model has 3 linear objective coefficients
2026-06-20 18:39:37 - INFO - Variable types: 217 continuous, 307 integer (307 binary)
2026-06-20 18:39:37 - INFO - Coefficient statistics:
2026-06-20 18:39:37 - INFO -   Matrix range     [3e-01, 8e+03]
2026-06-20 18:39:37 - INFO -   Objective range  [8e-05, 9e-02]
2026-06-20 18:39:37 - INFO -   Bounds range     [9e-01, 1e+07]
2026-06-20 18:39:37 - INFO -   RHS range        [9e-01, 3e+02]
2026-06-20 18:39:37 - INFO - 
2026-06-20 18:39:37 - INFO - Presolved: 1035 rows, 436 columns, 3638 nonzeros
2026-06-20 18:39:37 - INFO - 
2026-06-20 18:39:37 - INFO - Continuing optimization...
2026-06-20 18:39:37 - INFO - 
2026-06-20 18:39:37 - INFO - 
2026-06-20 18:39:37 - INFO - Cutting planes:
2026-06-20 18:39:37 - INFO -   Learned: 20
2026-06-20 18:39:37 - INFO -   Gomory: 139
2026-06-20 18:39:37 - INFO -   Lift-and-project: 78
2026-06-20 18:39:37 - INFO -   Cover: 2
2026-06-20 18:39:37 - INFO -   Implied bound: 3
2026-06-20 18:39:37 - INFO -   MIR: 39
2026-06-20 18:39:37 - INFO -   Mixing: 1
2026-06-20 18:39:37 - INFO -   Flow cover: 318
2026-06-20 18:39:37 - INFO -   Inf proof: 13
2026-06-20 18:39:37 - INFO -   RLT: 2
2026-06-20 18:39:37 - INFO -   Relax-and-lift: 2
2026-06-20 18:39:37 - INFO -   PSD: 2
2026-06-20 18:39:37 - INFO - 
2026-06-20 18:39:37 - INFO - Explored 11958 nodes (497673 simplex iterations) in 9.42 seconds (13.97 work units)
2026-06-20 18:39:37 - INFO - Most recent optimization runtime was 0.00 seconds (0.00 work units)
2026-06-20 18:39:37 - INFO - Thread count was 28 (of 28 available processors)
2026-06-20 18:39:37 - INFO - 
2026-06-20 18:39:37 - INFO - Solution count 0
2026-06-20 18:39:37 - INFO - 
2026-06-20 18:39:37 - INFO - Model is infeasible
2026-06-20 18:39:37 - INFO - Best objective -, best bound -, gap -
2026-06-20 18:39:37 - INFO - 
EMIB returned 0 solution(s) (max 1).
ng: 1
  Flow cover: 318
  Inf proof: 13
  RLT: 2
  Relax-and-lift: 2
  PSD: 2

Explored 11958 nodes (497673 simplex iterations) in 9.42 seconds (13.97 work units)
Most recent optimization runtime was 0.00 seconds (0.00 work units)
Thread count was 28 (of 28 available processors)

Solution count 0

Model is infeasible
Best objective -, best bound -, gap -
[EMIB] No feasible solution: MIPGap=0.8, status=3, time=0.00s, SolCount=0
[EMIB] Search failed, no feasible solution
  ✓ EMIB: 0 solution(s)
